cost: 539.58
Route 1:           0   11   29   18   30    2   38    8   23   19   50   37    9    5   24    0
Route 2:           0   16   15   14   33    1   32   22   20   21    7   36   44   45    6   17   27    0
Route 3:           0   31    0
Route 4:           0   47   34   26   13   10    3   43   39   48   49   41   12    4   25   42   46   40   35   28    0
